Traveling Salesman Problem/TSP_generados/Aleatorio1621103613_16.tsp
NAME: Aleatorio1621103613_16.tsp
COMMENT: Randomly generated scenario
TYPE: TSP
DIMENSION: 16
EDGE_WEIGHT_TYPE: ATT
NODE_COORD_SECTION
1 30.58 35.98
2 31.01 0.55
3 6.34 14.02
4 24.51 45.51
5 34.89 31.01
6 24.32 35.85
7 45.12 12.18
8 25.96 17.12
9 27.36 3.63
10 6.26 3.62
11 32.51 12.88
12 39.15 43.75
13 12.1 26.9
14 47.99 21.23
15 44.84 35.74
16 12.84 33.76
