Traveling Salesman Problem/TSP_generados/Aleatorio1621103613_16.opt.tour
NAME: Aleatorio1621103613_16.opt.tour
COMMENT: Optimal solution for Aleatorio1621103613_16 (181.70278559990925)
TYPE: TOUR
DIMENSION: 16
TOUR_SECTION
1 6 4 16 13 3 10 9 2 8 11 7 14 15 12 5
-1
EOF
